25
prerelaxed B3LYP cascade=6-31g*:60 theta=-97.24
N -1.99653344 0.06971248 -0.92376415
C 2.27305337 -0.31719999 1.00593789
H 2.19718494 0.76500164 1.03831704
C -1.14316341 0.78380703 -1.49241899
C -0.48576410 1.90545266 -1.74411608
C -1.23809464 3.04103999 -1.18794281
C -1.89453059 2.91568686 -0.00045523
C -1.98104281 1.72702501 0.84617722
C -1.99088695 0.42394770 0.45804814
H 0.50047484 1.97645227 -2.18683665
H -1.27342576 3.99130188 -1.72195408
H -2.39546949 3.80023302 0.39062389
H -2.15131148 1.91125305 1.90538459
H -2.10122182 -0.39130875 1.16804372
C 2.07316902 -1.11808014 -0.07684081
C 2.92409829 -1.13067867 2.03285813
C 3.21317897 -2.37743569 1.56347442
C 2.57964198 -2.52827686 0.21445255
C 3.23619437 -2.34774809 -1.18202599
C 2.58117917 -1.20120965 -1.46119088
H 3.18455223 -0.76055032 3.02145660
H 3.63445720 -3.18746205 2.14984253
H 1.81329354 -3.31493385 0.19638549
H 3.98334541 -2.93526502 -1.70447537
H 2.56030178 -0.52680379 -2.31008082
