25
stage A1 RHF/sto-3g theta=135.02
N 0.45370240 0.35934865 -0.64344684
C 0.94746209 -0.23867044 0.37609650
H 0.74176461 0.06064166 1.40673519
C -0.43943746 1.48511808 -0.37434360
C -0.26042650 2.64658644 -1.12616476
C -1.09111313 3.73537145 -0.93126080
C -2.12282049 3.66985824 -0.00451980
C -2.31736537 2.50954773 0.72742553
C -1.47893042 1.41981670 0.55032010
H 0.54235433 2.68527169 -1.85086036
H -0.93679411 4.63879801 -1.50759565
H -2.77683331 4.51984253 0.14085350
H -3.12770439 2.44985010 1.44298344
H -1.63971503 0.51242330 1.11740245
C 1.88718576 -1.39549597 0.21961519
C 2.53441255 -1.92144758 1.33521168
C 3.42335446 -2.97519585 1.19962644
C 3.67023230 -3.51727584 -0.05232800
C 3.02477414 -3.00414340 -1.16947437
C 2.13930483 -1.94891464 -1.03536412
H 2.34418529 -1.49791259 2.31333666
H 3.92626833 -3.37327892 2.07143869
H 4.36608660 -4.33982817 -0.15913810
H 3.21578056 -3.42912829 -2.14683911
H 1.63313914 -1.53737233 -1.89970985
