25
stage A2 RHF/3-21g theta=149.25
N 0.52047948 0.42936559 -0.47131638
C 0.98790032 -0.24525277 0.48452433
H 0.75357271 -0.02875320 1.51885995
C -0.39668516 1.49441943 -0.29969369
C -0.34582541 2.53199708 -1.22047584
C -1.20883005 3.60380625 -1.11376532
C -2.14849332 3.64406144 -0.09629363
C -2.21868573 2.60139770 0.80991164
C -1.34762608 1.53160231 0.71185192
H 0.37576559 2.47554667 -2.00839146
H -1.15571138 4.40256107 -1.82595474
H -2.82540896 4.47118468 -0.01846228
H -2.95699552 2.61373914 1.58724728
H -1.43157069 0.71360936 1.39892812
C 1.90598257 -1.37646962 0.27245996
C 2.41944273 -2.06492057 1.36098929
C 3.28871965 -3.12480089 1.16977541
C 3.64341500 -3.50272456 -0.11237121
C 3.12871969 -2.81892463 -1.20441363
C 2.26495300 -1.76063756 -1.01402293
H 2.14270627 -1.77344699 2.35646508
H 3.68634633 -3.64948402 2.01523986
H 4.31620052 -4.32363325 -0.26253280
H 3.40302826 -3.11338508 -2.19782275
H 1.85746738 -1.21704704 -1.84073619
