25
prerelaxed RHF cascade=sto-3g:250 3-21g:100 theta=-92.22
N -1.96222491 0.07941158 -0.93596393
C 2.27581550 -0.31849054 0.99459989
H 2.22592585 0.74889184 1.02858468
C -1.15911334 0.80193945 -1.51168664
C -0.50334484 1.89864757 -1.75828926
C -1.25636552 3.05143126 -1.18854479
C -1.88693631 2.91545195 -0.01790637
C -1.97317000 1.71314735 0.84365626
C -2.00624773 0.43219069 0.47893047
H 0.49386771 1.96408794 -2.13225810
H -1.28141431 3.98861183 -1.71113128
H -2.39750833 3.77232224 0.38217209
H -2.10488153 1.92012726 1.88921873
H -2.14008034 -0.37757022 1.16199640
C 2.05721907 -1.10620575 -0.05914783
C 2.92344984 -1.14780129 2.04147967
C 3.20673650 -2.37171928 1.57278178
C 2.56665582 -2.53232687 0.22071777
C 3.24829992 -2.33258111 -1.17746714
C 2.59500892 -1.20383782 -1.45866890
H 3.17620304 -0.78075076 3.01471785
H 3.66057279 -3.16140887 2.13350721
H 1.81074893 -3.30472251 0.19369524
H 3.96430679 -2.92152950 -1.70419605
H 2.57054335 -0.55146576 -2.30079775
