25
prerelaxed RHF cascade=6-31g*:80 theta=-96.28
N -1.98873501 0.08524683 -0.93081520
C 2.27895062 -0.31975329 0.99953494
H 2.20458648 0.75012692 1.04094154
C -1.17031633 0.81049901 -1.47793677
C -0.50388543 1.90062839 -1.74297952
C -1.24992738 3.04817355 -1.18304067
C -1.89989131 2.91836664 -0.01863180
C -1.97814712 1.71735896 0.83595784
C -1.99244008 0.43745286 0.45201059
H 0.49354551 1.94707248 -2.12982728
H -1.27242294 3.98924750 -1.70629347
H -2.41352964 3.78177672 0.36995680
H -2.09871682 1.90632986 1.88895455
H -2.08721926 -0.37300813 1.14960126
C 2.11642171 -1.10714266 -0.06653740
C 2.91153365 -1.14917532 2.04300562
C 3.21891408 -2.36616823 1.57339943
C 2.60247908 -2.50775717 0.21270425
C 3.23830897 -2.34214103 -1.18368589
C 2.58712284 -1.21544604 -1.46481910
H 3.13790718 -0.79257844 3.03202212
H 3.64468192 -3.16693909 2.14842885
H 1.82986271 -3.27119620 0.20085469
H 3.94800317 -2.93866004 -1.72477235
H 2.54698027 -0.56646341 -2.31803307
