25
prerelaxed B3LYP cascade=6-31g*:60 theta=145.50
N 0.49410838 0.42503958 -0.57793186
C 1.00521688 -0.21493750 0.40716055
H 0.80422607 0.06861561 1.45185577
C -0.40237554 1.48391650 -0.34868795
C -0.36553362 2.56747327 -1.24267525
C -1.22490939 3.65023375 -1.07662628
C -2.15811397 3.65639025 -0.03538572
C -2.22180821 2.56936297 0.83967610
C -1.35217145 1.48976488 0.68918328
H 0.35708176 2.54257471 -2.05259019
H -1.17297177 4.48864534 -1.76642279
H -2.84022006 4.49394724 0.08275714
H -2.95639884 2.55799095 1.64094205
H -1.42753085 0.63324840 1.35331129
C 1.90966606 -1.35724184 0.22624624
C 2.40955895 -2.02577157 1.35493571
C 3.27122561 -3.11317769 1.21121200
C 3.64487425 -3.54000663 -0.06434149
C 3.15399832 -2.87652353 -1.19530218
C 2.29150201 -1.79512699 -1.05454679
H 2.11784046 -1.68909918 2.34782485
H 3.65150433 -3.62541817 2.09079615
H 4.31725342 -4.38572627 -0.18014624
H 3.44816924 -3.20735743 -2.18735874
H 1.90172563 -1.26821504 -1.91934378
